120130
117837
121109
120798
122319
122007
119113
120568
121575
120699
218422
221191
217534
223558
218962
220514
219987
218194
216976
219693
295828
308077
299796
306476
300342
302560
301322
306430
302814
299904
